(set-info :smt-lib-version 2.5)
(set-info :license |https://www.gnu.org/licenses/gpl-3.0.html|)
(set-logic AUFDTLIRA)
(set-info :source |Benchmarks generated by Florian Schanda from the public SPARK 2014 testsuite and post-processed with a script to set more precise logics.|)
(set-info :category industrial)
(set-info :status unknown)

(declare-datatypes () ((tuple0 (Tuple0))))
(declare-sort us_private 0)
(declare-fun private__bool_eq (us_private us_private) Bool)
(declare-const us_null_ext__ us_private)
(declare-sort us_type_of_heap 0)
(declare-datatypes () ((us_type_of_heap__ref (mk___type_of_heap__ref (us_type_of_heap__content us_type_of_heap)))))
(declare-sort us_image 0)
(declare-datatypes () ((int__ref (mk_int__ref (int__content Int)))))
(declare-datatypes () ((bool__ref (mk_bool__ref (bool__content Bool)))))
(declare-datatypes () ((real__ref (mk_real__ref (real__content Real)))))
(declare-datatypes () ((us_private__ref (mk___private__ref (us_private__content us_private)))))
(define-fun int__ref___projection ((a int__ref)) Int (int__content a))
(define-fun bool__ref___projection ((a bool__ref)) Bool (bool__content a))
(define-fun real__ref___projection ((a real__ref)) Real (real__content a))
(define-fun us_private__ref___projection ((a us_private__ref)) us_private (us_private__content a))
(define-fun in_range ((x Int)) Bool (or (= x 0) (= x 1)))
(declare-fun attr__ATTRIBUTE_IMAGE (Bool) us_image)
(declare-fun attr__ATTRIBUTE_VALUE__pre_check (us_image) Bool)
(declare-fun attr__ATTRIBUTE_VALUE (us_image) Bool)
(declare-sort integer 0)
(declare-fun integerqtint (integer) Int)
(assert (forall ((i integer)) (and (<= (- 2147483648) (integerqtint i)) (<= (integerqtint i) 2147483647))))
(define-fun in_range1 ((x Int)) Bool (and (<= (- 2147483648) x) (<= x 2147483647)))
(declare-fun attr__ATTRIBUTE_IMAGE1 (Int) us_image)
(declare-fun attr__ATTRIBUTE_VALUE__pre_check1 (us_image) Bool)
(declare-fun attr__ATTRIBUTE_VALUE1 (us_image) Int)
(declare-fun user_eq (integer integer) Bool)
(declare-const dummy integer)
(declare-datatypes () ((integer__ref (mk_integer__ref (integer__content integer)))))
(define-fun integer__ref___projection ((a integer__ref)) integer (integer__content a))
(define-fun dynamic_invariant ((temp___expr_18 Int) (temp___is_init_14 Bool) (temp___skip_constant_15 Bool) (temp___do_toplevel_16 Bool) (temp___do_typ_inv_17 Bool)) Bool (=> (or (= temp___is_init_14 true) (<= (- 2147483648) 2147483647)) (in_range1 temp___expr_18)))
(define-fun to_rep ((x integer)) Int (integerqtint x))
(declare-fun of_rep (Int) integer)
(assert (forall ((x integer)) (! (= (of_rep (to_rep x)) x) :pattern ((to_rep x)))))
(assert (forall ((x integer)) (! (in_range1 (to_rep x)) :pattern ((to_rep x)))))
(assert (forall ((x Int)) (! (=> (in_range1 x) (= (to_rep (of_rep x)) x)) :pattern ((to_rep (of_rep x))))))
(declare-sort index 0)
(declare-fun indexqtint (index) Int)
(assert (forall ((i index)) (and (<= 0 (indexqtint i)) (<= (indexqtint i) 2147483646))))
(define-fun in_range2 ((x Int)) Bool (and (<= 0 x) (<= x 2147483646)))
(declare-fun attr__ATTRIBUTE_IMAGE2 (Int) us_image)
(declare-fun attr__ATTRIBUTE_VALUE__pre_check2 (us_image) Bool)
(declare-fun attr__ATTRIBUTE_VALUE2 (us_image) Int)
(declare-fun user_eq1 (index index) Bool)
(declare-const dummy1 index)
(declare-datatypes () ((index__ref (mk_index__ref (index__content index)))))
(define-fun index__ref___projection ((a index__ref)) index (index__content a))
(declare-datatypes () ((map__ref (mk_map__ref (map__content (Array Int integer))))))
(declare-fun slide ((Array Int integer) Int Int) (Array Int integer))
(assert (forall ((a (Array Int integer))) (forall ((first Int)) (! (= (slide a first first) a) :pattern ((slide a first first))))))
(assert (forall ((a (Array Int integer))) (forall ((old_first Int)) (forall ((new_first Int)) (forall ((i Int)) (! (= (select (slide a old_first new_first) i) (select a (- i (- new_first old_first)))) :pattern ((select (slide a old_first new_first) i))))))))
(define-fun bool_eq ((a (Array Int integer)) (a__first Int) (a__last Int) (b (Array Int integer)) (b__first Int) (b__last Int)) Bool (ite (and (ite (<= a__first a__last) (and (<= b__first b__last) (= (- a__last a__first) (- b__last b__first))) (< b__last b__first)) (forall ((temp___idx_154 Int)) (=> (and (<= a__first temp___idx_154) (<= temp___idx_154 a__last)) (= (to_rep (select a temp___idx_154)) (to_rep (select b (+ (- b__first a__first) temp___idx_154))))))) true false))
(assert (forall ((a (Array Int integer)) (b (Array Int integer))) (forall ((a__first Int) (a__last Int) (b__first Int) (b__last Int)) (=> (= (bool_eq b b__first b__last a a__first a__last) true) (and (ite (<= a__first a__last) (and (<= b__first b__last) (= (- a__last a__first) (- b__last b__first))) (< b__last b__first)) (forall ((temp___idx_154 Int)) (=> (and (<= a__first temp___idx_154) (<= temp___idx_154 a__last)) (= (to_rep (select a temp___idx_154)) (to_rep (select b (+ (- b__first a__first) temp___idx_154)))))))))))
(declare-sort t 0)
(declare-fun first (t) integer)
(declare-fun last (t) integer)
(declare-fun mk (Int Int) t)
(assert (forall ((f Int) (l Int)) (! (=> (in_range1 f) (=> (in_range1 l) (and (= (to_rep (first (mk f l))) f) (= (to_rep (last (mk f l))) l)))) :pattern ((mk f l)))))
(define-fun dynamic_property ((range_first Int) (range_last Int) (low Int) (high Int)) Bool (and (in_range1 low) (and (in_range1 high) (=> (<= low high) (and (in_range2 low) (in_range2 high))))))
(declare-datatypes () ((us_t (mk___t (elts (Array Int integer)) (rt t)))))
(define-fun to_array ((a us_t)) (Array Int integer) (elts a))
(define-fun of_array ((a (Array Int integer)) (f Int) (l Int)) us_t (mk___t a (mk f l)))
(define-fun first1 ((a us_t)) Int (to_rep (first (rt a))))
(define-fun last1 ((a us_t)) Int (to_rep (last (rt a))))
(define-fun length ((a us_t)) Int (ite (<= (first1 a) (last1 a)) (+ (- (last1 a) (first1 a)) 1) 0))
(declare-const value__size Int)
(declare-fun object__size ((Array Int integer)) Int)
(declare-const value__component__size Int)
(declare-fun object__component__size ((Array Int integer)) Int)
(declare-const value__alignment Int)
(declare-fun object__alignment ((Array Int integer)) Int)
(assert (<= 0 value__size))
(assert (forall ((a (Array Int integer))) (<= 0 (object__size a))))
(assert (<= 0 value__component__size))
(assert (forall ((a (Array Int integer))) (<= 0 (object__component__size a))))
(assert (<= 0 value__alignment))
(assert (forall ((a (Array Int integer))) (<= 0 (object__alignment a))))
(define-fun bool_eq1 ((x us_t) (y us_t)) Bool (bool_eq (elts x) (to_rep (first (rt x))) (to_rep (last (rt x))) (elts y) (to_rep (first (rt y))) (to_rep (last (rt y)))))
(declare-fun user_eq2 (us_t us_t) Bool)
(declare-const dummy2 us_t)
(declare-datatypes () ((arr__ref (mk_arr__ref (arr__content us_t)))))
(define-fun arr__ref___projection ((a arr__ref)) us_t (arr__content a))
(define-fun dynamic_invariant1 ((temp___expr_166 us_t) (temp___is_init_162 Bool) (temp___skip_constant_163 Bool) (temp___do_toplevel_164 Bool) (temp___do_typ_inv_165 Bool)) Bool (and (=> (not (= temp___skip_constant_163 true)) (dynamic_property 0 2147483646 (first1 temp___expr_166) (last1 temp___expr_166))) (=> (= temp___do_toplevel_164 true) (=> (= temp___is_init_162 true) (= (first1 temp___expr_166) 0)))))
(define-fun dynamic_predicate ((temp___169 us_t)) Bool (= (first1 temp___169) 0))
(declare-const a us_t)
(declare-const attr__ATTRIBUTE_ADDRESS Int)
(declare-const i Int)
(declare-const attr__ATTRIBUTE_ADDRESS1 Int)
(declare-const j Int)
(declare-const attr__ATTRIBUTE_ADDRESS2 Int)
(define-fun dynamic_invariant2 ((temp___expr_159 Int) (temp___is_init_155 Bool) (temp___skip_constant_156 Bool) (temp___do_toplevel_157 Bool) (temp___do_typ_inv_158 Bool)) Bool (=> (or (= temp___is_init_155 true) (<= 0 2147483646)) (in_range2 temp___expr_159)))
(declare-const k Int)
(declare-const o Int)
(declare-const o1 Bool)
(declare-const temp___281 Int)
(declare-const o2 Int)
(declare-const o3 integer)
(declare-const o4 Int)
(declare-const result Bool)
(assert (dynamic_invariant1 a true false true true))
(assert (in_range1 i))
(assert (in_range1 j))
(assert (and (< (- 2147483648) j) (=> (<= i j) (and (and (<= (to_rep (first (rt a))) i) (<= i (to_rep (last (rt a))))) (and (<= (to_rep (first (rt a))) j) (<= j (to_rep (last (rt a)))))))))
(assert (and (= o (- j 1)) (in_range1 (- j 1))))
(assert (= o1 (ite (<= k o) true false)))
(assert (= result (ite (<= i k) o1 false)))
(assert (= result true))
(assert (and (= temp___281 (+ k 1)) (in_range1 (+ k 1))))
(assert (and (<= (to_rep (first (rt a))) temp___281) (<= temp___281 (to_rep (last (rt a))))))
(assert (= o2 temp___281))
(assert (= o3 (select (elts a) o2)))
(assert (= o4 (to_rep o3)))
(assert (not (<= (to_rep (first (rt a))) k)))
(check-sat)
(exit)
